* Signature: 0xefb2faddc321b44a
NAME lp_typeD_066
OBJSENSE MAX
ROWS
 N  OBJ
 L  c0      
 G  c1      
 G  c2      
 L  c_key_upper
 G  c_key_lower
 G  _chain_constr_1
 G  _chain_constr_2
 G  _chain_cycle
COLUMNS
    x0        OBJ       7.8101869874250984e-01
    x0        c0        1.2636291877918697e+00
    x0        c1        1.5277342060140469e+00
    x0        c2        1.6171397026560665e+00
    x0        c_key_upper  1.7684612192945888e+00
    x0        c_key_lower  1.7684612192945888e+00
    x1        OBJ       5.9330895255130034e-01
    x1        c0        1.4456079746771453e+00
    x1        c1        0.82903277098636
    x1        c2        8.0745205718756974e-01
    x1        c_key_upper  1.0949115686105086e+00
    x1        c_key_lower  1.0949115686105086e+00
    x2        OBJ       1.2174941058125723e+00
    x2        c0        1.3920568712428589e+00
    x2        c1        0.50083142785232
    x2        c2        1.7827389333251848e+00
    x2        c_key_upper  1.7579149087394788e+00
    x2        c_key_lower  1.7579149087394788e+00
    x3        OBJ       5.7604411935849875e-01
    x3        c0        1.1261244101497550e+00
    x3        c1        1.8361467348779670e+00
    x3        c2        1.0163466650129807e+00
    x3        c_key_upper  1.4128421439466883e+00
    x3        c_key_lower  1.4128421439466883e+00
    x4        OBJ       1.2053309417867684e+00
    x4        c0        6.8504560656398261e-01
    x4        c1        1.48166405734904
    x4        c2        8.8274327691953713e-01
    x4        c_key_upper  1.8998218179198580e+00
    x4        c_key_lower  1.8998218179198580e+00
    x5        OBJ       1.0439929830883126e+00
    x5        c0        1.0884884636590337e+00
    x5        c1        1.9865978533484667e+00
    x5        c2        1.0991133426227646e+00
    x5        c_key_upper  1.9057895203084685e+00
    x5        c_key_lower  1.9057895203084685e+00
    x6        OBJ       1.2034179044710533e+00
    x6        c0        0.637239007916276
    x6        c1        1.3121962871621236e+00
    x6        c2        1.6312494045421913e+00
    x6        c_key_upper  1.8834225328133130e+00
    x6        c_key_lower  1.8834225328133130e+00
    x7        OBJ       1.2711277209221339e+00
    x7        c0        1.5649504619064050e+00
    x7        c1        7.7669655906787294e-01
    x7        c2        7.4773613867238020e-01
    x7        c_key_upper  1.4782242781215937e+00
    x7        c_key_lower  1.4782242781215937e+00
    _chain_var_0  _chain_constr_1  -1
    _chain_var_0  _chain_cycle  1
    _chain_var_1  _chain_constr_1  1
    _chain_var_1  _chain_constr_2  -1
    _chain_var_2  _chain_constr_2  1
    _chain_var_2  _chain_cycle  -1
RHS
    RHS1      c0        4.1648742637307095e+01
    RHS1      c1        1.3828918040001778e+01
    RHS1      c2        1.1339614449382822e+01
    RHS1      c_key_upper  66.0069399487725
    RHS1      c_key_lower  3.3003469974386249e+01
    RHS1      _chain_constr_1  10
    RHS1      _chain_constr_2  10
    RHS1      _chain_cycle  10
BOUNDS
 UP BND1      x0        10
 UP BND1      x1        10
 UP BND1      x2        10
 UP BND1      x3        10
 UP BND1      x4        10
 UP BND1      x5        10
 UP BND1      x6        10
 UP BND1      x7        10
 UP BND1      _chain_var_0  100
 UP BND1      _chain_var_1  100
 UP BND1      _chain_var_2  100
ENDATA
